SECTION Graph
Nodes 323
Edges 592
E 1 284 1
E 1 285 1
E 1 289 8
E 2 277 44
E 2 288 4
E 3 277 12
E 3 284 44
E 4 277 1
E 5 12 5
E 5 282 1
E 5 283 1
E 6 8 1
E 6 283 12
E 6 287 6
E 7 8 12
E 7 9 1
E 7 282 1
E 7 283 1
E 8 10 1
E 8 286 6
E 9 10 12
E 9 281 1
E 10 285 6
E 11 13 1
E 11 18 5
E 11 279 12
E 12 279 1
E 12 280 1
E 13 14 12
E 13 15 1
E 13 20 5
E 14 16 1
E 14 279 1
E 14 280 1
E 15 16 12
E 15 22 5
E 16 278 1
E 17 24 5
E 17 275 1
E 17 276 1
E 18 20 1
E 18 276 12
E 19 20 12
E 19 21 1
E 19 275 1
E 19 276 1
E 20 22 1
E 21 22 12
E 21 274 1
E 23 25 1
E 23 30 5
E 23 272 12
E 24 272 1
E 24 273 1
E 25 26 12
E 25 27 1
E 25 32 5
E 26 28 1
E 26 272 1
E 26 273 1
E 27 28 12
E 27 34 5
E 28 271 1
E 29 265 23
E 29 270 1
E 30 32 1
E 30 270 12
E 31 32 12
E 31 33 1
E 31 264 24
E 31 270 1
E 32 34 1
E 33 34 12
E 33 263 24
E 35 255 21
E 35 266 1
E 35 267 3
E 35 268 9
E 36 268 6
E 36 269 1
E 37 262 17
E 37 266 9
E 37 268 1
E 37 269 6
E 38 267 9
E 38 268 3
E 39 218 6
E 39 220 1
E 39 221 1
E 39 247 46
E 40 42 1
E 40 221 12
E 40 254 46
E 40 256 48
E 40 284 175
E 41 42 12
E 41 43 1
E 41 220 1
E 41 221 1
E 42 44 1
E 43 44 12
E 43 219 1
E 45 167 7
E 45 177 1
E 45 180 1
E 45 191 5
E 46 191 6
E 46 199 1
E 47 177 5
E 47 191 1
E 48 180 5
E 48 191 1
E 48 193 3
E 48 199 6
E 49 81 1
E 49 82 5
E 50 82 6
E 51 82 1
E 52 81 5
E 52 82 1
E 53 230 14
E 53 240 2
E 53 243 1
E 53 244 1
E 54 243 12
E 54 246 1
E 55 94 1
E 55 95 1
E 55 97 1
E 55 98 6
E 56 98 5
E 56 99 1
E 56 100 1
E 56 102 3
E 57 75 33
E 57 95 6
E 57 98 1
E 57 99 5
E 58 97 6
E 58 98 1
E 58 100 5
E 58 153 48
E 59 73 2
E 59 89 33
E 60 76 3
E 60 81 32
E 60 101 33
E 61 77 23
E 61 224 3
E 61 227 1
E 61 232 5
E 62 178 64
E 62 233 1
E 62 237 1
E 62 238 2
E 63 83 1
E 63 84 5
E 64 84 6
E 64 85 1
E 64 86 1
E 64 87 1
E 65 84 1
E 65 85 6
E 66 83 5
E 66 84 1
E 66 86 6
E 66 110 48
E 67 77 3
E 67 224 23
E 68 80 2
E 68 239 23
E 68 251 1
E 69 104 6
E 69 105 1
E 69 111 6
E 69 112 6
E 70 104 1
E 70 105 6
E 71 104 6
E 71 111 6
E 72 292 33
E 73 74 1
E 73 93 33
E 74 75 6
E 74 95 33
E 75 76 5
E 76 99 33
E 77 78 5
E 78 79 6
E 78 232 23
E 79 80 1
E 79 235 23
E 80 237 23
E 83 106 48
E 85 89 4
E 86 88 1
E 86 117 48
E 87 88 1
E 87 91 3
E 88 90 2
E 88 120 48
E 89 91 1
E 89 93 2
E 90 92 1
E 90 124 48
E 91 92 1
E 91 94 2
E 92 96 2
E 92 126 48
E 93 94 1
E 93 95 1
E 94 96 1
E 96 97 1
E 96 134 48
E 97 137 48
E 99 101 3
E 100 103 3
E 100 163 48
E 101 102 1
E 102 103 1
E 103 177 52
E 105 109 6
E 106 107 1
E 106 110 5
E 107 108 1
E 107 113 5
E 108 109 3
E 108 114 5
E 109 112 1
E 109 115 5
E 110 113 1
E 110 117 6
E 111 118 6
E 111 222 80
E 112 116 5
E 112 118 6
E 113 114 1
E 113 119 6
E 114 115 3
E 114 121 6
E 115 116 1
E 115 127 6
E 116 130 6
E 116 131 6
E 117 119 1
E 117 120 1
E 118 130 5
E 118 146 11
E 119 121 1
E 119 122 1
E 120 122 1
E 120 124 2
E 121 123 1
E 121 127 3
E 122 123 1
E 122 125 2
E 123 128 2
E 123 132 3
E 124 125 1
E 124 126 1
E 125 128 1
E 125 129 1
E 126 129 1
E 126 134 2
E 127 131 1
E 127 132 1
E 128 133 1
E 128 138 3
E 129 133 1
E 129 136 2
E 130 147 6
E 130 159 11
E 131 135 1
E 131 147 6
E 132 135 1
E 132 138 2
E 133 139 2
E 133 142 3
E 134 136 1
E 134 137 1
E 135 141 2
E 135 151 6
E 136 139 1
E 136 140 1
E 137 140 1
E 137 153 6
E 138 141 1
E 138 142 1
E 139 143 1
E 139 145 3
E 140 143 1
E 140 155 6
E 141 144 1
E 141 156 6
E 142 144 1
E 142 145 2
E 143 149 3
E 143 157 6
E 144 148 2
E 144 158 6
E 145 148 1
E 145 149 1
E 146 150 1
E 146 159 5
E 147 151 1
E 147 169 11
E 148 152 1
E 148 161 6
E 149 152 1
E 149 162 6
E 150 154 1
E 150 160 5
E 151 156 2
E 151 172 11
E 152 165 6
E 152 166 6
E 153 155 1
E 153 163 5
E 154 164 5
E 154 227 64
E 155 157 1
E 155 167 5
E 156 158 1
E 156 238 77
E 157 162 3
E 157 168 5
E 158 161 2
E 158 179 11
E 159 160 1
E 159 169 6
E 160 164 1
E 160 171 6
E 161 165 1
E 161 183 11
E 162 166 1
E 162 170 5
E 163 167 1
E 163 177 7
E 164 174 6
E 164 231 64
E 165 176 6
E 165 185 11
E 166 173 5
E 166 176 6
E 167 168 1
E 168 170 3
E 168 180 7
E 169 171 1
E 169 172 1
E 170 173 1
E 170 187 7
E 171 174 1
E 171 175 1
E 172 175 1
E 172 179 3
E 173 186 6
E 173 190 7
E 174 178 1
E 174 233 64
E 175 178 1
E 175 181 3
E 176 186 5
E 176 194 11
E 178 182 3
E 179 181 1
E 179 183 2
E 180 187 3
E 181 182 1
E 181 184 2
E 182 188 2
E 182 213 27
E 183 184 1
E 183 185 1
E 184 188 1
E 184 189 1
E 185 189 1
E 185 194 6
E 186 197 7
E 186 200 11
E 187 190 1
E 187 193 5
E 188 192 1
E 188 226 46
E 189 192 1
E 189 196 6
E 190 195 5
E 190 197 6
E 192 198 6
E 192 244 64
E 193 195 1
E 193 201 6
E 194 196 1
E 194 200 5
E 195 203 6
E 195 204 6
E 196 198 1
E 196 202 5
E 197 203 5
E 197 206 11
E 198 205 5
E 198 245 64
E 199 201 3
E 200 202 1
E 200 206 7
E 201 204 1
E 202 205 1
E 202 208 7
E 203 207 6
E 203 210 11
E 204 207 6
E 205 209 7
E 205 234 46
E 206 208 1
E 206 210 5
E 207 216 11
E 208 209 1
E 208 211 5
E 209 212 5
E 210 211 1
E 210 216 6
E 211 212 1
E 211 217 6
E 212 218 6
E 213 214 1
E 214 215 1
E 215 223 17
E 216 217 1
E 216 219 6
E 217 218 1
E 217 220 6
E 219 220 1
E 221 249 46
E 222 224 1
E 222 227 3
E 223 225 1
E 223 226 2
E 225 228 2
E 225 229 3
E 226 228 1
E 226 234 12
E 227 231 5
E 228 230 3
E 228 236 12
E 229 230 2
E 229 240 14
E 230 241 12
E 231 232 1
E 231 233 6
E 232 235 6
E 233 235 1
E 234 236 1
E 234 247 24
E 235 237 1
E 236 241 3
E 236 248 24
E 237 239 2
E 238 239 1
E 238 240 1
E 239 242 1
E 240 242 1
E 241 246 14
E 241 252 24
E 242 243 2
E 242 251 23
E 244 245 6
E 245 246 5
E 247 248 1
E 247 249 1
E 248 250 1
E 248 252 3
E 249 250 1
E 249 254 12
E 250 253 3
E 250 255 12
E 252 253 1
E 253 258 12
E 254 255 1
E 254 266 21
E 255 258 3
E 256 257 1
E 256 260 9
E 257 259 1
E 257 261 9
E 258 267 21
E 259 262 9
E 259 266 17
E 260 261 1
E 260 263 6
E 261 262 1
E 261 264 6
E 262 265 6
E 263 264 1
E 264 265 1
E 265 269 17
E 271 273 1
E 271 274 5
E 273 275 5
E 274 275 1
E 278 280 1
E 278 281 5
E 280 282 5
E 281 282 1
E 284 288 8
E 285 286 1
E 285 290 8
E 286 287 1
E 286 291 8
E 287 292 8
E 288 289 1
E 289 290 1
E 290 291 1
E 291 292 1
E 1 293 100000
E 2 293 100000
E 3 294 100000
E 4 294 100000
E 5 295 100000
E 6 295 100000
E 7 296 100000
E 8 296 100000
E 9 297 100000
E 10 297 100000
E 11 298 100000
E 12 298 100000
E 13 299 100000
E 14 299 100000
E 15 300 100000
E 16 300 100000
E 17 301 100000
E 18 301 100000
E 19 302 100000
E 20 302 100000
E 21 303 100000
E 22 303 100000
E 23 304 100000
E 24 304 100000
E 25 305 100000
E 26 305 100000
E 27 306 100000
E 28 306 100000
E 29 307 100000
E 30 307 100000
E 31 308 100000
E 32 308 100000
E 33 309 100000
E 34 309 100000
E 35 310 100000
E 36 310 100000
E 37 310 100000
E 38 310 100000
E 39 311 100000
E 40 311 100000
E 41 312 100000
E 42 312 100000
E 43 313 100000
E 44 313 100000
E 45 314 100000
E 46 314 100000
E 47 314 100000
E 48 314 100000
E 49 315 100000
E 50 315 100000
E 51 315 100000
E 52 315 100000
E 53 316 100000
E 54 316 100000
E 55 317 100000
E 56 317 100000
E 57 317 100000
E 58 317 100000
E 59 318 100000
E 60 318 100000
E 61 319 100000
E 62 319 100000
E 63 320 100000
E 64 320 100000
E 65 320 100000
E 66 320 100000
E 67 321 100000
E 68 321 100000
E 69 322 100000
E 70 322 100000
E 71 322 100000
E 72 323 100000
E 73 318 100000
E 74 318 100000
E 75 318 100000
E 76 318 100000
E 77 321 100000
E 78 321 100000
E 79 321 100000
E 80 321 100000
END

SECTION Terminals
Terminals 31
T 293
T 294
T 295
T 296
T 297
T 298
T 299
T 300
T 301
T 302
T 303
T 304
T 305
T 306
T 307
T 308
T 309
T 310
T 311
T 312
T 313
T 314
T 315
T 316
T 317
T 318
T 319
T 320
T 321
T 322
T 323
END

EOF
